NAME : in_house_8_14
TYPE : TSP
DIMENSION : 8
EDGE_WEIGHT_TYPE : EXPLICIT
EDGE_WEIGHT_FORMAT : UPPER_ROW
COMMENT : INVERSION_SHIFT=8
EDGE_WEIGHT_SECTION
59
27
43
52
52
7
44
26
45
11
58
10
64
25
60
21
9
57
20
46
6
38
12
1
17
3
29
13
